430979
55,9,45,89,19,24,72,90,25,50,56,6,40,42,16,77,51,4,80,64,20,85,32,37,94,96,3,53,73,48,67,41,93,26,43,28,10,59,66,44,61,39,60,102,106,30,29,97,81,69,22,36,11,21,78,17,86,62,38,105,70,71,54,95,98,46,52,5,8,99,63,103,31,92,83,57,87,74,58,7,84,91,15,49,100,13,34,68,14,35,79,76,1,27,23,12,18,75,101,33,104,2,88,82,47,65